Version identifier: 22.1.1.0 | 2022-11-28 | 9160aff4d
CPXPARAM_ClockType                               1
CPXPARAM_Read_DataCheck                          1
CPXPARAM_Threads                                 1
CPXPARAM_Simplex_Tolerances_Optimality           1.0000000000000001e-09
CPXPARAM_TimeLimit                               7200
CPXPARAM_MIP_Tolerances_AbsMIPGap                0
CPXPARAM_MIP_Tolerances_MIPGap                   0
CPXPARAM_MIP_Tolerances_Integrality              0
Tried aggregator 1 time.
MIQP Presolve eliminated 7362 rows and 4 columns.
MIQP Presolve modified 2633 coefficients.
Reduced MIQP has 14634 rows, 4996 columns, and 46461 nonzeros.
Reduced MIQP has 4496 binaries, 500 generals, 0 SOSs, and 0 indicators.
Reduced MIQP objective Q matrix has 500 nonzeros.
Presolve time = 0.06 sec. (39.12 ticks)
Probing time = 0.01 sec. (3.25 ticks)
Tried aggregator 1 time.
MIQP Presolve eliminated 500 rows and 0 columns.
Reduced MIQP has 14134 rows, 4996 columns, and 43961 nonzeros.
Reduced MIQP has 4496 binaries, 500 generals, 0 SOSs, and 0 indicators.
Reduced MIQP objective Q matrix has 500 nonzeros.
Presolve time = 0.05 sec. (30.50 ticks)
Classifier predicts products in MIQP should be linearized.
Probing time = 0.00 sec. (3.18 ticks)
Clique table members: 8198.
MIP emphasis: balance optimality and feasibility.
MIP search method: dynamic search.
Parallel mode: none, using 1 thread.
Root relaxation solution time = 11.50 sec. (23405.13 ticks)

        Nodes                                         Cuts/
   Node  Left     Objective  IInf  Best Integer    Best Bound    ItCnt     Gap

      0     0     2000.0000  2102                   2000.0000        6         
      0     0     2000.0000  2648                   Cuts: 600   148046         
*     0+    0                         1638.0000     2000.0000            22.10%
      0     0     2000.0000  3676     1638.0000    Cuts: 1460   286191   22.10%
      0     0     2000.0000  3885     1638.0000    Cuts: 1659   318201   22.10%
*     0+    0                         1650.0000     2000.0000            21.21%
*     0+    0                         1676.0000     2000.0000            19.33%
*     0+    0                         1706.0000     2000.0000            17.23%
      0     0        cutoff           1706.0000     2000.0000   318201   17.23%
      0     0     2000.0000  4781     1706.0000    Cuts: 1629   332843   17.23%
      0     0     2000.0000  4912     1706.0000    Cuts: 3633   469739   17.23%

GUB cover cuts applied:  1
Clique cuts applied:  614
Implied bound cuts applied:  40
Flow cuts applied:  8
Zero-half cuts applied:  2076
Gomory fractional cuts applied:  1

Root node processing (before b&c):
  Real time             = 7201.28 sec. (4114025.87 ticks)
Sequential b&c:
  Real time             =    0.00 sec. (0.00 ticks)
                          ------------
Total (root+branch&cut) = 7201.28 sec. (4114025.87 ticks)
Solution is feasible.

---------------------
@@@ MIP_time_limit_feasible
>>> Benchmark sw100-7.cnf k 5 OPT 1706 TimeCost 7226.182114601135 TimeSolve 7224.297553062439 TimeRead 0.007054805755615234 TimeTrans 1.8775067329406738
